p cnf 120 394
1 2 3 0
4 5 6 0
7 8 9 0
10 11 12 0
13 14 15 0
16 17 18 0
19 20 21 0
22 23 24 0
25 26 27 0
28 29 30 0
31 32 33 0
34 35 36 0
37 38 39 0
40 41 42 0
43 44 45 0
46 47 48 0
49 50 51 0
52 53 54 0
55 56 57 0
58 59 60 0
61 62 63 0
64 65 66 0
67 68 69 0
70 71 72 0
73 74 75 0
76 77 78 0
79 80 81 0
82 83 84 0
85 86 87 0
88 89 90 0
91 92 93 0
94 95 96 0
97 98 99 0
100 101 102 0
103 104 105 0
106 107 108 0
109 110 111 0
112 113 114 0
115 116 117 0
118 119 120 0
-1 -2 0
-1 -3 0
-2 -3 0
-4 -5 0
-4 -6 0
-5 -6 0
-7 -8 0
-7 -9 0
-8 -9 0
-10 -11 0
-10 -12 0
-11 -12 0
-13 -14 0
-13 -15 0
-14 -15 0
-16 -17 0
-16 -18 0
-17 -18 0
-19 -20 0
-19 -21 0
-20 -21 0
-22 -23 0
-22 -24 0
-23 -24 0
-25 -26 0
-25 -27 0
-26 -27 0
-28 -29 0
-28 -30 0
-29 -30 0
-31 -32 0
-31 -33 0
-32 -33 0
-34 -35 0
-34 -36 0
-35 -36 0
-37 -38 0
-37 -39 0
-38 -39 0
-40 -41 0
-40 -42 0
-41 -42 0
-43 -44 0
-43 -45 0
-44 -45 0
-46 -47 0
-46 -48 0
-47 -48 0
-49 -50 0
-49 -51 0
-50 -51 0
-52 -53 0
-52 -54 0
-53 -54 0
-55 -56 0
-55 -57 0
-56 -57 0
-58 -59 0
-58 -60 0
-59 -60 0
-61 -62 0
-61 -63 0
-62 -63 0
-64 -65 0
-64 -66 0
-65 -66 0
-67 -68 0
-67 -69 0
-68 -69 0
-70 -71 0
-70 -72 0
-71 -72 0
-73 -74 0
-73 -75 0
-74 -75 0
-76 -77 0
-76 -78 0
-77 -78 0
-79 -80 0
-79 -81 0
-80 -81 0
-82 -83 0
-82 -84 0
-83 -84 0
-85 -86 0
-85 -87 0
-86 -87 0
-88 -89 0
-88 -90 0
-89 -90 0
-91 -92 0
-91 -93 0
-92 -93 0
-94 -95 0
-94 -96 0
-95 -96 0
-97 -98 0
-97 -99 0
-98 -99 0
-100 -101 0
-100 -102 0
-101 -102 0
-103 -104 0
-103 -105 0
-104 -105 0
-106 -107 0
-106 -108 0
-107 -108 0
-109 -110 0
-109 -111 0
-110 -111 0
-112 -113 0
-112 -114 0
-113 -114 0
-115 -116 0
-115 -117 0
-116 -117 0
-118 -119 0
-118 -120 0
-119 -120 0
-1 -7 0
-2 -8 0
-3 -9 0
-1 -25 0
-2 -26 0
-3 -27 0
-1 -88 0
-2 -89 0
-3 -90 0
-4 -10 0
-5 -11 0
-6 -12 0
-7 -64 0
-8 -65 0
-9 -66 0
-7 -100 0
-8 -101 0
-9 -102 0
-10 -16 0
-11 -17 0
-12 -18 0
-10 -97 0
-11 -98 0
-12 -99 0
-13 -19 0
-14 -20 0
-15 -21 0
-13 -28 0
-14 -29 0
-15 -30 0
-13 -31 0
-14 -32 0
-15 -33 0
-13 -55 0
-14 -56 0
-15 -57 0
-13 -58 0
-14 -59 0
-15 -60 0
-13 -115 0
-14 -116 0
-15 -117 0
-16 -46 0
-17 -47 0
-18 -48 0
-16 -67 0
-17 -68 0
-18 -69 0
-16 -103 0
-17 -104 0
-18 -105 0
-19 -70 0
-20 -71 0
-21 -72 0
-19 -82 0
-20 -83 0
-21 -84 0
-22 -28 0
-23 -29 0
-24 -30 0
-22 -61 0
-23 -62 0
-24 -63 0
-22 -85 0
-23 -86 0
-24 -87 0
-25 -55 0
-26 -56 0
-27 -57 0
-25 -79 0
-26 -80 0
-27 -81 0
-25 -91 0
-26 -92 0
-27 -93 0
-25 -97 0
-26 -98 0
-27 -99 0
-25 -118 0
-26 -119 0
-27 -120 0
-28 -34 0
-29 -35 0
-30 -36 0
-28 -52 0
-29 -53 0
-30 -54 0
-28 -61 0
-29 -62 0
-30 -63 0
-28 -67 0
-29 -68 0
-30 -69 0
-31 -73 0
-32 -74 0
-33 -75 0
-31 -97 0
-32 -98 0
-33 -99 0
-31 -109 0
-32 -110 0
-33 -111 0
-34 -97 0
-35 -98 0
-36 -99 0
-34 -106 0
-35 -107 0
-36 -108 0
-37 -40 0
-38 -41 0
-39 -42 0
-37 -58 0
-38 -59 0
-39 -60 0
-37 -82 0
-38 -83 0
-39 -84 0
-37 -100 0
-38 -101 0
-39 -102 0
-40 -55 0
-41 -56 0
-42 -57 0
-40 -82 0
-41 -83 0
-42 -84 0
-40 -115 0
-41 -116 0
-42 -117 0
-43 -61 0
-44 -62 0
-45 -63 0
-43 -70 0
-44 -71 0
-45 -72 0
-43 -82 0
-44 -83 0
-45 -84 0
-46 -67 0
-47 -68 0
-48 -69 0
-49 -76 0
-50 -77 0
-51 -78 0
-52 -67 0
-53 -68 0
-54 -69 0
-52 -73 0
-53 -74 0
-54 -75 0
-52 -76 0
-53 -77 0
-54 -78 0
-52 -112 0
-53 -113 0
-54 -114 0
-55 -85 0
-56 -86 0
-57 -87 0
-55 -88 0
-56 -89 0
-57 -90 0
-58 -109 0
-59 -110 0
-60 -111 0
-61 -64 0
-62 -65 0
-63 -66 0
-61 -79 0
-62 -80 0
-63 -81 0
-61 -100 0
-62 -101 0
-63 -102 0
-64 -73 0
-65 -74 0
-66 -75 0
-67 -97 0
-68 -98 0
-69 -99 0
-67 -103 0
-68 -104 0
-69 -105 0
-67 -109 0
-68 -110 0
-69 -111 0
-70 -76 0
-71 -77 0
-72 -78 0
-70 -109 0
-71 -110 0
-72 -111 0
-73 -109 0
-74 -110 0
-75 -111 0
-76 -85 0
-77 -86 0
-78 -87 0
-79 -82 0
-80 -83 0
-81 -84 0
-79 -112 0
-80 -113 0
-81 -114 0
-85 -94 0
-86 -95 0
-87 -96 0
-85 -115 0
-86 -116 0
-87 -117 0
-88 -91 0
-89 -92 0
-90 -93 0
-88 -106 0
-89 -107 0
-90 -108 0
-88 -115 0
-89 -116 0
-90 -117 0
-91 -100 0
-92 -101 0
-93 -102 0
-91 -106 0
-92 -107 0
-93 -108 0
-94 -97 0
-95 -98 0
-96 -99 0
-103 -118 0
-104 -119 0
-105 -120 0
-106 -115 0
-107 -116 0
-108 -117 0
